QF_S/20230329-automatark-lu/instance10425.smt2
(set-info :smt-lib-version 2.6)
(set-logic QF_S)
(set-info :source |
Generated by: Murphy Berzish, Mitja Kulczynski, Federico Mora, Florin Manea, Joel Day, Dirk Nowotka, Vijay Ganesh, Zhengyang Lu
Generated on: 2020-10-01
Description: Translated from a collection of real-world regex queries, AutomataArk, collected by Loris D’Antoni and Fang Wang: https://github.com/lorisdanto/automatark
Application: Evaluate solvers on real-world regex queries
Target solver: Z3str3RE, CVC4, OSTRICH, Z3seq, Z3str3, Z3-Trau
Publications: Berzish, M., Kulczynski, M., Mora, F., Manea, F., Day, J. D., Nowotka, D., & Ganesh, V. (2021, July). An SMT solver for regular expressions and linear arithmetic over string length. In CAV 2021.
|)
(set-info :license "https://creativecommons.org/licenses/by/4.0/")
(set-info :category "industrial")
(set-info :status unsat)

(declare-const X String)
(assert (str.in_re X (re.++ (re.union (re.++ (re.opt (str.to_re "0")) (re.range "1" "9")) (re.++ (str.to_re "1") (re.range "0" "2"))) (str.to_re "/") (re.union (re.++ (re.opt (str.to_re "0")) (re.range "1" "9")) (re.++ (re.union (str.to_re "1") (str.to_re ",") (str.to_re "2")) ((_ re.loop 1 1) (re.range "0" "9"))) (re.++ (str.to_re "3") (re.union (str.to_re "0") (str.to_re ",") (str.to_re "1")))) (str.to_re "/") (re.union (str.to_re "1") (str.to_re "2")) ((_ re.loop 3 3) (re.range "0" "9")) (str.to_re "\u{a}"))))
(assert (not (str.in_re X (re.++ (str.to_re "//AES") (re.+ (re.range "0" "9")) (str.to_re "O") (re.+ (re.range "0" "9")) (str.to_re ".jsp?") ((_ re.loop 20 20) (re.union (re.range "a" "z") (re.range "0" "9") (str.to_re "=") (str.to_re "+") (str.to_re "/"))) (str.to_re "/iU\u{a}")))))
(assert (not (str.in_re X (re.union (re.range "0" "9") (re.++ (re.+ (re.range "1" "9")) (re.range "0" "9") (str.to_re "\u{a}"))))))
(assert (str.in_re X (re.++ (str.to_re "/gate.php?reg=") ((_ re.loop 10 10) (re.range "a" "z")) (str.to_re "/U\u{a}"))))
(check-sat)

(exit)
